c n orig vars 80
p cnf 82 217
1 2 -81 0
3 4 -81 0
5 6 -81 0
7 8 -81 0
9 10 -81 0
11 12 -81 0
13 14 -81 0
15 16 -81 0
17 18 -81 0
19 20 -81 0
21 22 -81 0
23 24 -81 0
25 33 41 49 57 65 73 -82 0
26 34 42 50 58 66 74 -82 0
27 35 43 51 59 67 75 -82 0
28 36 44 52 60 68 76 -82 0
29 37 45 53 61 69 77 -82 0
30 38 46 54 62 70 78 -82 0
31 39 47 55 63 71 79 -82 0
32 40 48 56 64 72 80 -82 0
-25 -26 -82 0
-25 -27 -82 0
-25 -28 -82 0
-25 -29 -82 0
-25 -30 -82 0
-25 -31 -82 0
-25 -32 -82 0
-26 -27 -82 0
-26 -28 -82 0
-26 -29 -82 0
-26 -30 -82 0
-26 -31 -82 0
-26 -32 -82 0
-27 -28 -82 0
-27 -29 -82 0
-27 -30 -82 0
-27 -31 -82 0
-27 -32 -82 0
-28 -29 -82 0
-28 -30 -82 0
-28 -31 -82 0
-28 -32 -82 0
-29 -30 -82 0
-29 -31 -82 0
-29 -32 -82 0
-30 -31 -82 0
-30 -32 -82 0
-31 -32 -82 0
-33 -34 -82 0
-33 -35 -82 0
-33 -36 -82 0
-33 -37 -82 0
-33 -38 -82 0
-33 -39 -82 0
-33 -40 -82 0
-34 -35 -82 0
-34 -36 -82 0
-34 -37 -82 0
-34 -38 -82 0
-34 -39 -82 0
-34 -40 -82 0
-35 -36 -82 0
-35 -37 -82 0
-35 -38 -82 0
-35 -39 -82 0
-35 -40 -82 0
-36 -37 -82 0
-36 -38 -82 0
-36 -39 -82 0
-36 -40 -82 0
-37 -38 -82 0
-37 -39 -82 0
-37 -40 -82 0
-38 -39 -82 0
-38 -40 -82 0
-39 -40 -82 0
-41 -42 -82 0
-41 -43 -82 0
-41 -44 -82 0
-41 -45 -82 0
-41 -46 -82 0
-41 -47 -82 0
-41 -48 -82 0
-42 -43 -82 0
-42 -44 -82 0
-42 -45 -82 0
-42 -46 -82 0
-42 -47 -82 0
-42 -48 -82 0
-43 -44 -82 0
-43 -45 -82 0
-43 -46 -82 0
-43 -47 -82 0
-43 -48 -82 0
-44 -45 -82 0
-44 -46 -82 0
-44 -47 -82 0
-44 -48 -82 0
-45 -46 -82 0
-45 -47 -82 0
-45 -48 -82 0
-46 -47 -82 0
-46 -48 -82 0
-47 -48 -82 0
-49 -50 -82 0
-49 -51 -82 0
-49 -52 -82 0
-49 -53 -82 0
-49 -54 -82 0
-49 -55 -82 0
-49 -56 -82 0
-50 -51 -82 0
-50 -52 -82 0
-50 -53 -82 0
-50 -54 -82 0
-50 -55 -82 0
-50 -56 -82 0
-51 -52 -82 0
-51 -53 -82 0
-51 -54 -82 0
-51 -55 -82 0
-51 -56 -82 0
-52 -53 -82 0
-52 -54 -82 0
-52 -55 -82 0
-52 -56 -82 0
-53 -54 -82 0
-53 -55 -82 0
-53 -56 -82 0
-54 -55 -82 0
-54 -56 -82 0
-55 -56 -82 0
-57 -58 -82 0
-57 -59 -82 0
-57 -60 -82 0
-57 -61 -82 0
-57 -62 -82 0
-57 -63 -82 0
-57 -64 -82 0
-58 -59 -82 0
-58 -60 -82 0
-58 -61 -82 0
-58 -62 -82 0
-58 -63 -82 0
-58 -64 -82 0
-59 -60 -82 0
-59 -61 -82 0
-59 -62 -82 0
-59 -63 -82 0
-59 -64 -82 0
-60 -61 -82 0
-60 -62 -82 0
-60 -63 -82 0
-60 -64 -82 0
-61 -62 -82 0
-61 -63 -82 0
-61 -64 -82 0
-62 -63 -82 0
-62 -64 -82 0
-63 -64 -82 0
-65 -66 -82 0
-65 -67 -82 0
-65 -68 -82 0
-65 -69 -82 0
-65 -70 -82 0
-65 -71 -82 0
-65 -72 -82 0
-66 -67 -82 0
-66 -68 -82 0
-66 -69 -82 0
-66 -70 -82 0
-66 -71 -82 0
-66 -72 -82 0
-67 -68 -82 0
-67 -69 -82 0
-67 -70 -82 0
-67 -71 -82 0
-67 -72 -82 0
-68 -69 -82 0
-68 -70 -82 0
-68 -71 -82 0
-68 -72 -82 0
-69 -70 -82 0
-69 -71 -82 0
-69 -72 -82 0
-70 -71 -82 0
-70 -72 -82 0
-71 -72 -82 0
-73 -74 -82 0
-73 -75 -82 0
-73 -76 -82 0
-73 -77 -82 0
-73 -78 -82 0
-73 -79 -82 0
-73 -80 -82 0
-74 -75 -82 0
-74 -76 -82 0
-74 -77 -82 0
-74 -78 -82 0
-74 -79 -82 0
-74 -80 -82 0
-75 -76 -82 0
-75 -77 -82 0
-75 -78 -82 0
-75 -79 -82 0
-75 -80 -82 0
-76 -77 -82 0
-76 -78 -82 0
-76 -79 -82 0
-76 -80 -82 0
-77 -78 -82 0
-77 -79 -82 0
-77 -80 -82 0
-78 -79 -82 0
-78 -80 -82 0
-79 -80 -82 0
81 82 0
